c Reduced graph for p29_1 generated by Cyril Grelier
p edge 33 129
e 1 9
e 1 11
e 1 19
e 1 20
e 1 22
e 1 28
e 1 31
e 1 32
e 2 3
e 2 6
e 2 8
e 2 10
e 2 14
e 2 16
e 2 18
e 2 19
e 2 23
e 2 26
e 2 27
e 2 32
e 3 4
e 3 5
e 3 6
e 3 8
e 3 9
e 3 10
e 3 14
e 3 16
e 3 18
e 3 27
e 3 32
e 4 5
e 4 9
e 5 9
e 6 8
e 6 10
e 6 14
e 6 16
e 6 18
e 6 27
e 6 32
e 7 11
e 7 12
e 7 13
e 7 15
e 7 17
e 7 18
e 7 23
e 7 29
e 8 10
e 8 14
e 8 16
e 8 18
e 8 27
e 8 32
e 9 11
e 9 19
e 9 22
e 9 31
e 10 14
e 10 16
e 10 18
e 10 21
e 10 22
e 10 25
e 10 27
e 10 32
e 11 15
e 11 17
e 11 18
e 11 19
e 11 22
e 11 31
e 12 13
e 12 14
e 12 23
e 12 29
e 12 30
e 13 23
e 13 24
e 13 27
e 13 29
e 14 16
e 14 18
e 14 27
e 14 30
e 14 32
e 15 17
e 15 18
e 16 18
e 16 27
e 16 29
e 16 31
e 16 32
e 16 33
e 17 18
e 17 21
e 17 24
e 17 28
e 17 33
e 18 27
e 18 32
e 19 22
e 19 23
e 19 26
e 19 31
e 20 25
e 20 28
e 20 30
e 20 32
e 21 22
e 21 24
e 21 25
e 21 28
e 21 33
e 22 25
e 22 31
e 23 26
e 23 29
e 24 27
e 24 28
e 24 33
e 25 30
e 27 32
e 28 32
e 28 33
e 29 31
e 29 33
e 31 33
